(set-logic BV) (define-fun origCir ((n207 Bool) (n203 Bool) (n177 Bool) (n85 Bool)) Bool (and n207 (not (and n203 (and n177 n85))))) (synth-fun skel ((n207 Bool) (n203 Bool) (n177 Bool) (n85 Bool)) Bool) (declare-var n207 Bool) (declare-var n203 Bool) (declare-var n177 Bool) (declare-var n85 Bool) (constraint (= (origCir n207 n203 n177 n85) (skel n207 n203 n177 n85))) (check-synth)
